p cnf 74 558
9 26 32 52 61 0
1 19 62 0
10 28 38 47 54 0
3 20 0
4 29 40 49 56 0
21 34 50 57 71 0
22 35 41 58 72 0
6 23 36 42 0
7 16 0
44 51 0
-1 -10 2 0
-1 -11 3 0
-1 -12 4 0
-1 -13 0
-1 -14 5 0
-1 -15 6 0
-1 -16 7 0
-1 -17 8 0
-2 -19 1 0
-2 -20 3 0
-2 4 0
-2 -21 0
-2 -22 5 0
-2 -23 6 0
-2 -24 7 0
-2 -25 8 0
-3 -27 1 0
-3 -28 2 0
-3 -29 4 0
-3 -30 0
-3 -31 5 0
-4 -33 1 0
-4 -34 0
-4 -35 5 0
-4 -36 6 0
-5 -46 1 0
-5 -47 2 0
-5 -48 3 0
-5 -49 4 0
-5 -50 0
-5 -51 8 0
-6 -53 1 0
-6 -54 2 0
-6 -55 3 0
-6 -56 4 0
-6 -57 0
-6 -58 5 0
-6 -59 7 0
-6 -60 8 0
-7 -62 1 0
-7 -63 2 0
-7 3 0
-7 -64 4 0
-7 -65 0
-7 5 0
-7 -66 8 0
-8 -68 1 0
-8 -69 2 0
-8 3 0
-8 -70 4 0
-8 -71 0
-8 -72 5 0
-8 -73 6 0
-8 -74 7 0
-9 -2 10 0
-9 -3 11 0
-9 -4 12 0
-9 -5 14 0
-9 -6 15 0
-9 -7 16 0
-9 -8 17 0
-10 -18 9 0
-10 -20 11 0
-10 12 0
-10 -21 13 0
-10 -22 14 0
-10 -23 15 0
-10 -24 16 0
-10 -25 17 0
-11 -26 9 0
-11 -28 10 0
-11 -29 12 0
-11 -30 13 0
-11 -31 14 0
-12 -32 9 0
-12 -34 13 0
-12 -35 14 0
-12 -36 15 0
-13 9 0
-13 -38 10 0
-13 -39 11 0
-13 -40 12 0
-13 -41 14 0
-13 -42 15 0
-13 -43 16 0
-13 -44 17 0
-14 -45 9 0
-14 -47 10 0
-14 -48 11 0
-14 -49 12 0
-14 -50 13 0
-14 -51 17 0
-15 -52 9 0
-15 -54 10 0
-15 -55 11 0
-15 -56 12 0
-15 -57 13 0
-15 -58 14 0
-15 -59 16 0
-15 -60 17 0
-16 -61 9 0
-16 -63 10 0
-16 11 0
-16 -64 12 0
-16 -65 13 0
-16 14 0
-16 -66 17 0
-17 -67 9 0
-17 -69 10 0
-17 11 0
-17 -70 12 0
-17 -71 13 0
-17 -72 14 0
-17 -73 15 0
-17 -74 16 0
-18 -1 19 0
-18 -3 20 0
-18 -5 22 0
-18 -6 23 0
-18 -7 24 0
-18 -8 25 0
-19 -9 18 0
-19 -11 20 0
-19 -13 21 0
-19 -14 22 0
-19 -15 23 0
-19 -16 24 0
-19 -17 25 0
-20 -26 18 0
-20 -27 19 0
-20 -30 21 0
-20 -31 22 0
-32 18 0
-33 19 0
-34 21 0
-35 22 0
-36 23 0
-21 18 0
-21 -37 19 0
-21 -39 20 0
-21 -41 22 0
-21 -42 23 0
-21 -43 24 0
-21 -44 25 0
-22 -45 18 0
-22 -46 19 0
-22 -48 20 0
-22 -50 21 0
-22 -51 25 0
-23 -52 18 0
-23 -53 19 0
-23 -55 20 0
-23 -57 21 0
-23 -58 22 0
-23 -59 24 0
-23 -60 25 0
-24 -61 18 0
-24 -62 19 0
-24 20 0
-24 -65 21 0
-24 22 0
-24 -66 25 0
-25 -67 18 0
-25 -68 19 0
-25 20 0
-25 -71 21 0
-25 -72 22 0
-25 -73 23 0
-25 -74 24 0
-26 -1 27 0
-26 -2 28 0
-26 -4 29 0
-26 -5 31 0
-26 -6 0
-26 -7 0
-26 -8 0
-27 -9 26 0
-27 -10 28 0
-27 -12 29 0
-27 -13 30 0
-27 -14 31 0
-27 -15 0
-27 -16 0
-27 -17 0
-28 -18 26 0
-28 -19 27 0
-28 29 0
-28 -21 30 0
-28 -22 31 0
-28 -23 0
-28 -24 0
-28 -25 0
-29 -32 26 0
-29 -33 27 0
-29 -34 30 0
-29 -35 31 0
-29 -36 0
-30 26 0
-30 -37 27 0
-30 -38 28 0
-30 -40 29 0
-30 -41 31 0
-30 -42 0
-30 -43 0
-30 -44 0
-31 -45 26 0
-31 -46 27 0
-31 -47 28 0
-31 -49 29 0
-31 -50 30 0
-31 -51 0
-32 -1 33 0
-32 -2 0
-32 -3 0
-32 -5 35 0
-32 -6 36 0
-32 -7 0
-32 -8 0
-33 -9 32 0
-33 -10 0
-33 -11 0
-33 -13 34 0
-33 -14 35 0
-33 -15 36 0
-33 -16 0
-33 -17 0
-34 32 0
-34 -37 33 0
-34 -38 0
-34 -39 0
-34 -41 35 0
-34 -42 36 0
-34 -43 0
-34 -44 0
-35 -45 32 0
-35 -46 33 0
-35 -47 0
-35 -48 0
-35 -50 34 0
-35 -51 0
-36 -52 32 0
-36 -53 33 0
-36 -54 0
-36 -55 0
-36 -57 34 0
-36 -58 35 0
-36 -59 0
-36 -60 0
-1 37 0
-2 38 0
-3 39 0
-4 40 0
-5 41 0
-6 42 0
-7 43 0
-8 44 0
-37 -10 38 0
-37 -11 39 0
-37 -12 40 0
-37 -14 41 0
-37 -15 42 0
-37 -16 43 0
-37 -17 44 0
-38 -19 37 0
-38 -20 39 0
-38 40 0
-38 -22 41 0
-38 -23 42 0
-38 -24 43 0
-38 -25 44 0
-39 -27 37 0
-39 -28 38 0
-39 -29 40 0
-39 -31 41 0
-40 -33 37 0
-40 -35 41 0
-40 -36 42 0
-41 -46 37 0
-41 -47 38 0
-41 -48 39 0
-41 -49 40 0
-41 -51 44 0
-42 -53 37 0
-42 -54 38 0
-42 -55 39 0
-42 -56 40 0
-42 -58 41 0
-42 -59 43 0
-42 -60 44 0
-43 -62 37 0
-43 -63 38 0
-43 39 0
-43 -64 40 0
-43 41 0
-43 -66 44 0
-44 -68 37 0
-44 -69 38 0
-44 39 0
-44 -70 40 0
-44 -72 41 0
-44 -73 42 0
-44 -74 43 0
-45 -1 46 0
-45 -2 47 0
-45 -3 48 0
-45 -4 49 0
-45 -6 0
-45 -7 0
-45 -8 51 0
-46 -9 45 0
-46 -10 47 0
-46 -11 48 0
-46 -12 49 0
-46 -13 50 0
-46 -15 0
-46 -16 0
-46 -17 51 0
-47 -18 45 0
-47 -19 46 0
-47 -20 48 0
-47 49 0
-47 -21 50 0
-47 -23 0
-47 -24 0
-47 -25 51 0
-48 -26 45 0
-48 -27 46 0
-48 -28 47 0
-48 -29 49 0
-48 -30 50 0
-49 -32 45 0
-49 -33 46 0
-49 -34 50 0
-49 -36 0
-50 45 0
-50 -37 46 0
-50 -38 47 0
-50 -39 48 0
-50 -40 49 0
-50 -42 0
-50 -43 0
-50 -44 51 0
-51 -67 45 0
-51 -68 46 0
-51 -69 47 0
-51 48 0
-51 -70 49 0
-51 -71 50 0
-51 -73 0
-51 -74 0
-52 -1 53 0
-52 -2 54 0
-52 -3 55 0
-52 -4 56 0
-52 -5 58 0
-52 -7 59 0
-52 -8 60 0
-53 -9 52 0
-53 -10 54 0
-53 -11 55 0
-53 -12 56 0
-53 -13 57 0
-53 -14 58 0
-53 -16 59 0
-53 -17 60 0
-54 -18 52 0
-54 -19 53 0
-54 -20 55 0
-54 56 0
-54 -21 57 0
-54 -22 58 0
-54 -24 59 0
-54 -25 60 0
-55 -26 52 0
-55 -27 53 0
-55 -28 54 0
-55 -29 56 0
-55 -30 57 0
-55 -31 58 0
-56 -32 52 0
-56 -33 53 0
-56 -34 57 0
-56 -35 58 0
-57 52 0
-57 -37 53 0
-57 -38 54 0
-57 -39 55 0
-57 -40 56 0
-57 -41 58 0
-57 -43 59 0
-57 -44 60 0
-58 -45 52 0
-58 -46 53 0
-58 -47 54 0
-58 -48 55 0
-58 -49 56 0
-58 -50 57 0
-58 -51 60 0
-59 -61 52 0
-59 -62 53 0
-59 -63 54 0
-59 55 0
-59 -64 56 0
-59 -65 57 0
-59 58 0
-59 -66 60 0
-60 -67 52 0
-60 -68 53 0
-60 -69 54 0
-60 55 0
-60 -70 56 0
-60 -71 57 0
-60 -72 58 0
-60 -74 59 0
-61 -1 62 0
-61 -2 63 0
-61 -4 64 0
-61 -6 0
-61 -8 66 0
-62 -9 61 0
-62 -10 63 0
-62 -12 64 0
-62 -13 65 0
-62 -15 0
-62 -17 66 0
-63 -18 61 0
-63 -19 62 0
-63 64 0
-63 -21 65 0
-63 -23 0
-63 -25 66 0
-26 61 0
-27 62 0
-28 63 0
-29 64 0
-30 65 0
-64 -32 61 0
-64 -33 62 0
-64 -34 65 0
-64 -36 0
-65 61 0
-65 -37 62 0
-65 -38 63 0
-65 -40 64 0
-65 -42 0
-65 -44 66 0
-45 61 0
-46 62 0
-47 63 0
-49 64 0
-50 65 0
-51 66 0
-66 -67 61 0
-66 -68 62 0
-66 -69 63 0
-66 -70 64 0
-66 -71 65 0
-66 -73 0
-67 -1 68 0
-67 -2 69 0
-67 -4 70 0
-67 -5 72 0
-67 -6 73 0
-67 -7 74 0
-68 -9 67 0
-68 -10 69 0
-68 -12 70 0
-68 -13 71 0
-68 -14 72 0
-68 -15 73 0
-68 -16 74 0
-69 -18 67 0
-69 -19 68 0
-69 70 0
-69 -21 71 0
-69 -22 72 0
-69 -23 73 0
-69 -24 74 0
-26 67 0
-27 68 0
-28 69 0
-29 70 0
-30 71 0
-31 72 0
-70 -32 67 0
-70 -33 68 0
-70 -34 71 0
-70 -35 72 0
-70 -36 73 0
-71 67 0
-71 -37 68 0
-71 -38 69 0
-71 -40 70 0
-71 -41 72 0
-71 -42 73 0
-71 -43 74 0
-72 -45 67 0
-72 -46 68 0
-72 -47 69 0
-72 -49 70 0
-72 -50 71 0
-73 -52 67 0
-73 -53 68 0
-73 -54 69 0
-73 -56 70 0
-73 -57 71 0
-73 -58 72 0
-73 -59 74 0
-74 -61 67 0
-74 -62 68 0
-74 -63 69 0
-74 -64 70 0
-74 -65 71 0
-74 72 0
-1 -9 0
-2 -18 0
-3 -26 0
-4 -32 0
-5 -45 0
-6 -52 0
-7 -61 0
-8 -67 0
-10 -19 0
-11 -27 0
-12 -33 0
-13 -37 0
-14 -46 0
-15 -53 0
-16 -62 0
-17 -68 0
-20 -28 0
-21 -38 0
-22 -47 0
-23 -54 0
-24 -63 0
-25 -69 0
-30 -39 0
-31 -48 0
-34 -40 0
-35 -49 0
-36 -56 0
-41 -50 0
-42 -57 0
-43 -65 0
-44 -71 0
-51 -72 0
-60 -73 0
-66 -74 0
